sat
(:added-eqs                       1319
 :arith-eq-adapter                176
 :arith-bound-propagations-lp     28
 :arith-conflicts                 136
 :arith-diseq                     200
 :arith-fixed-eqs                 29
 :arith-gcd-calls                 11
 :arith-grobner-calls             26
 :arith-grobner-conflicts         8
 :arith-horner-calls              8
 :arith-horner-cross-nested-forms 1098
 :arith-lower                     592
 :arith-make-feasible             465
 :arith-max-columns               573
 :arith-max-rows                  186
 :arith-nla-add-bounds            15
 :arith-nla-lemmas                86
 :arith-nla-propagate-bounds      35
 :arith-nla-propagate-eq          276
 :arith-nra-calls                 10
 :arith-offset-eqs                3
 :arith-patches                   11
 :arith-patches-success           11
 :arith-upper                     1345
 :binary-propagations             3423
 :card2bv-rewrites                1
 :conflicts                       24
 :decisions                       4567
 :del-clause                      91
 :elim-unconstrained              18
 :final-checks                    54
 :max-memory                      24.63
 :memory                          19.16
 :mk-bool-var                     1230
 :mk-clause                       419
 :mk-clause-binary                9540
 :nlsat-conflicts                 874
 :nlsat-decisions                 39
 :nlsat-propagations              48532
 :nlsat-restarts                  1
 :nlsat-stages                    26977
 :num-allocs                      42220280
 :num-checks                      1
 :propagations                    3927
 :rlimit-count                    754382
 :time                            0.25
 :total-time                      0.27)
